NAME : block_38.207689.tour
COMMENT : Length = 207689
COMMENT : Found by LKH-3 [Keld Helsgaun] Mon Feb  2 23:14:08 2026
TYPE : TOUR
DIMENSION : 60
TOUR_SECTION
35
29
23
17
11
7
8
12
13
19
25
18
24
30
36
42
41
47
52
2
60
1
48
53
57
54
49
44
43
37
31
38
32
26
20
14
15
9
5
3
4
6
10
16
22
21
27
33
39
45
50
55
58
59
56
51
46
40
34
28
-1
EOF
